Maximize
  - 3.6024592861257 edge_0_1_0_0 - 2.8373476591555 edge_0_2_0_0
   - 0.23247795815396 edge_0_3_0_0 - 2.5349314407612 edge_0_4_0_0
   - 2.6028532410972 edge_0_7_0_0 - 1.7071592829928 edge_0_8_0_0
   - 1.287146499738 edge_0_9_0_0 - 2.7006741535527 edge_0_10_0_0
   - 0.9133295405999999 edge_0_11_0_0 - 1.6516543885268 edge_0_12_0_0
   - 0.4144345599689787 edge_1_2_0_0 - 0.4199263400353531 edge_1_3_0_0
   - 0.1091505703267626 edge_1_4_0_0 - 1.546385879174516 edge_1_8_0_0
   - 0.6586738815984673 edge_1_10_0_0 + 0.0270623210322598 edge_1_12_0_0
   - 1.246970449649446 edge_2_1_0_0 + 0.1843633110721928 edge_2_3_0_0
   - 0.193984639637567 edge_2_7_0_0 - 0.5498142394784237 edge_2_8_0_0
   - 0.1192339906344406 edge_2_11_0_0 - 0.1774221904818986 edge_2_12_0_0
   + 1.088400227939324 edge_3_1_0_0 + 3.450906018367805 edge_3_2_0_0
   + 1.372281170706945 edge_3_4_0_0 - 0.7510960046464948 edge_3_5_0_0
   - 0.3806415793177834 edge_3_6_0_0 + 0.759088142229522 edge_3_7_0_0
   + 1.112530109789971 edge_3_8_0_0 + 0.8749828781187535 edge_3_9_0_0
   + 0.4030094490155803 edge_3_10_0_0 + 2.26929353377429 edge_3_11_0_0
   + 1.74795718578485 edge_3_12_0_0 - 1.108302744010315 edge_4_1_0_0
   - 0.8005540418802258 edge_4_2_0_0 - 0.8454765592148007 edge_4_3_0_0
   - 0.2458390601773367 edge_4_5_0_0 - 1.091492244070991 edge_4_11_0_0
   - 0.7667523041029604 edge_5_3_0_0 - 0.1530486508985239 edge_5_4_0_0
   + 0.5080831899929089 edge_5_6_0_0 + 0.09412326583594 edge_5_7_0_0
   + 0.188870044565388 edge_5_8_0_0 + 0.1963619666499872 edge_5_9_0_0
   + 0.6935443837146331 edge_5_12_0_0 - 0.7102197480798017 edge_6_5_0_0
   - 0.12223757839956 edge_6_7_0_0 - 0.5534983122778416 edge_6_12_0_0
   - 0.5596878984339516 edge_7_1_0_0 + 0.1326709432757417 edge_7_2_0_0
   - 0.2123632029579251 edge_7_3_0_0 + 0.1523408535275826 edge_7_4_0_0
   + 0.3905859519509201 edge_7_5_0_0 + 1.1444698313052 edge_7_6_0_0
   + 1.289399458452 edge_7_8_0_0 + 0.5720833321764 edge_7_9_0_0
   - 0.7134585738735125 edge_7_10_0_0 - 0.0382002296201152 edge_7_11_0_0
   + 0.60558513401202 edge_7_12_0_0 - 0.6895773659874066 edge_8_1_0_0
   + 0.7490680148170457 edge_8_2_0_0 + 0.2738739244416511 edge_8_3_0_0
   + 1.338401113918342 edge_8_4_0_0 + 1.373668164253729 edge_8_5_0_0
   + 1.99473739993754 edge_8_6_0_0 + 3.3414358338152 edge_8_7_0_0
   + 0.8500531021533472 edge_8_9_0_0 - 0.2331931149786634 edge_8_10_0_0
   + 0.5436609255739208 edge_8_11_0_0 + 0.5340850119412207 edge_8_12_0_0
   + 0.0741866302639363 edge_9_1_0_0 + 1.107097059452309 edge_9_2_0_0
   - 0.0301510728479259 edge_9_3_0_0 + 0.5300296110351174 edge_9_4_0_0
   + 1.481323746817458 edge_9_5_0_0 + 2.7158879191912 edge_9_6_0_0
   + 1.269197524683 edge_9_7_0_0 + 2.240191136847328 edge_9_8_0_0
   + 0.1919433859417847 edge_9_10_0_0 + 0.1334270757792412 edge_9_11_0_0
   + 1.789595249005135 edge_9_12_0_0 - 0.034845273254483 edge_10_1_0_0
   + 0.232244297108021 edge_10_3_0_0 + 0.810518267469603 edge_10_4_0_0
   + 0.3653799236735943 edge_10_7_0_0 + 0.6340778836379862 edge_10_8_0_0
   + 0.972477527257978 edge_10_9_0_0 + 2.497850048581743 edge_10_11_0_0
   + 1.229405864511504 edge_10_12_0_0 - 1.40623522472558 edge_11_1_0_0
   + 1.662280215684342 edge_11_2_0_0 + 1.119586863729753 edge_11_3_0_0
   + 0.561799179277095 edge_11_4_0_0 - 0.9050328961833664 edge_11_5_0_0
   - 0.6217600219505988 edge_11_6_0_0 + 0.9148623327200992 edge_11_7_0_0
   + 1.455091460689942 edge_11_8_0_0 + 0.0438853762053867 edge_11_9_0_0
   + 0.5957330716632855 edge_11_12_0_0 - 0.857304229403416 edge_12_3_0_0
   - 1.012805923555458 edge_12_6_0_0 - 1.2336582358662 edge_12_7_0_0
   - 0.4807001739142482 edge_12_8_0_0 - 0.3985716702671965 edge_12_9_0_0
   - 0.0777422441960482 edge_12_11_0_0
Subject To
 one_parent_1: edge_0_1_0_0 + edge_2_1_0_0 + edge_3_1_0_0 + edge_4_1_0_0
   + edge_7_1_0_0 + edge_8_1_0_0 + edge_9_1_0_0 + edge_10_1_0_0
   + edge_11_1_0_0 = 1
 consume_one_flow_unit_1: flow_0_1_0_0 - flow_1_2_0_0 - flow_1_3_0_0
   - flow_1_4_0_0 - flow_1_8_0_0 - flow_1_10_0_0 - flow_1_12_0_0
   + flow_2_1_0_0 + flow_3_1_0_0 + flow_4_1_0_0 + flow_7_1_0_0
   + flow_8_1_0_0 + flow_9_1_0_0 + flow_10_1_0_0 + flow_11_1_0_0 = 1
 one_parent_2: edge_0_2_0_0 + edge_1_2_0_0 + edge_3_2_0_0 + edge_4_2_0_0
   + edge_7_2_0_0 + edge_8_2_0_0 + edge_9_2_0_0 + edge_11_2_0_0 = 1
 consume_one_flow_unit_2: flow_0_2_0_0 + flow_1_2_0_0 - flow_2_1_0_0
   - flow_2_3_0_0 - flow_2_7_0_0 - flow_2_8_0_0 - flow_2_11_0_0
   - flow_2_12_0_0 + flow_3_2_0_0 + flow_4_2_0_0 + flow_7_2_0_0
   + flow_8_2_0_0 + flow_9_2_0_0 + flow_11_2_0_0 = 1
 one_parent_3: edge_0_3_0_0 + edge_1_3_0_0 + edge_2_3_0_0 + edge_4_3_0_0
   + edge_5_3_0_0 + edge_7_3_0_0 + edge_8_3_0_0 + edge_9_3_0_0
   + edge_10_3_0_0 + edge_11_3_0_0 + edge_12_3_0_0 = 1
 consume_one_flow_unit_3: flow_0_3_0_0 + flow_1_3_0_0 + flow_2_3_0_0
   - flow_3_1_0_0 - flow_3_2_0_0 - flow_3_4_0_0 - flow_3_5_0_0
   - flow_3_6_0_0 - flow_3_7_0_0 - flow_3_8_0_0 - flow_3_9_0_0
   - flow_3_10_0_0 - flow_3_11_0_0 - flow_3_12_0_0 + flow_4_3_0_0
   + flow_5_3_0_0 + flow_7_3_0_0 + flow_8_3_0_0 + flow_9_3_0_0
   + flow_10_3_0_0 + flow_11_3_0_0 + flow_12_3_0_0 = 1
 one_parent_4: edge_0_4_0_0 + edge_1_4_0_0 + edge_3_4_0_0 + edge_5_4_0_0
   + edge_7_4_0_0 + edge_8_4_0_0 + edge_9_4_0_0 + edge_10_4_0_0
   + edge_11_4_0_0 = 1
 consume_one_flow_unit_4: flow_0_4_0_0 + flow_1_4_0_0 + flow_3_4_0_0
   - flow_4_1_0_0 - flow_4_2_0_0 - flow_4_3_0_0 - flow_4_5_0_0
   - flow_4_11_0_0 + flow_5_4_0_0 + flow_7_4_0_0 + flow_8_4_0_0
   + flow_9_4_0_0 + flow_10_4_0_0 + flow_11_4_0_0 = 1
 one_parent_5: edge_3_5_0_0 + edge_4_5_0_0 + edge_6_5_0_0 + edge_7_5_0_0
   + edge_8_5_0_0 + edge_9_5_0_0 + edge_11_5_0_0 = 1
 consume_one_flow_unit_5: flow_3_5_0_0 + flow_4_5_0_0 - flow_5_3_0_0
   - flow_5_4_0_0 - flow_5_6_0_0 - flow_5_7_0_0 - flow_5_8_0_0
   - flow_5_9_0_0 - flow_5_12_0_0 + flow_6_5_0_0 + flow_7_5_0_0
   + flow_8_5_0_0 + flow_9_5_0_0 + flow_11_5_0_0 = 1
 one_parent_6: edge_3_6_0_0 + edge_5_6_0_0 + edge_7_6_0_0 + edge_8_6_0_0
   + edge_9_6_0_0 + edge_11_6_0_0 + edge_12_6_0_0 = 1
 consume_one_flow_unit_6: flow_3_6_0_0 + flow_5_6_0_0 - flow_6_5_0_0
   - flow_6_7_0_0 - flow_6_12_0_0 + flow_7_6_0_0 + flow_8_6_0_0
   + flow_9_6_0_0 + flow_11_6_0_0 + flow_12_6_0_0 = 1
 one_parent_7: edge_0_7_0_0 + edge_2_7_0_0 + edge_3_7_0_0 + edge_5_7_0_0
   + edge_6_7_0_0 + edge_8_7_0_0 + edge_9_7_0_0 + edge_10_7_0_0
   + edge_11_7_0_0 + edge_12_7_0_0 = 1
 consume_one_flow_unit_7: flow_0_7_0_0 + flow_2_7_0_0 + flow_3_7_0_0
   + flow_5_7_0_0 + flow_6_7_0_0 - flow_7_1_0_0 - flow_7_2_0_0
   - flow_7_3_0_0 - flow_7_4_0_0 - flow_7_5_0_0 - flow_7_6_0_0
   - flow_7_8_0_0 - flow_7_9_0_0 - flow_7_10_0_0 - flow_7_11_0_0
   - flow_7_12_0_0 + flow_8_7_0_0 + flow_9_7_0_0 + flow_10_7_0_0
   + flow_11_7_0_0 + flow_12_7_0_0 = 1
 one_parent_8: edge_0_8_0_0 + edge_1_8_0_0 + edge_2_8_0_0 + edge_3_8_0_0
   + edge_5_8_0_0 + edge_7_8_0_0 + edge_9_8_0_0 + edge_10_8_0_0
   + edge_11_8_0_0 + edge_12_8_0_0 = 1
 consume_one_flow_unit_8: flow_0_8_0_0 + flow_1_8_0_0 + flow_2_8_0_0
   + flow_3_8_0_0 + flow_5_8_0_0 + flow_7_8_0_0 - flow_8_1_0_0
   - flow_8_2_0_0 - flow_8_3_0_0 - flow_8_4_0_0 - flow_8_5_0_0
   - flow_8_6_0_0 - flow_8_7_0_0 - flow_8_9_0_0 - flow_8_10_0_0
   - flow_8_11_0_0 - flow_8_12_0_0 + flow_9_8_0_0 + flow_10_8_0_0
   + flow_11_8_0_0 + flow_12_8_0_0 = 1
 one_parent_9: edge_0_9_0_0 + edge_3_9_0_0 + edge_5_9_0_0 + edge_7_9_0_0
   + edge_8_9_0_0 + edge_10_9_0_0 + edge_11_9_0_0 + edge_12_9_0_0 = 1
 consume_one_flow_unit_9: flow_0_9_0_0 + flow_3_9_0_0 + flow_5_9_0_0
   + flow_7_9_0_0 + flow_8_9_0_0 - flow_9_1_0_0 - flow_9_2_0_0
   - flow_9_3_0_0 - flow_9_4_0_0 - flow_9_5_0_0 - flow_9_6_0_0
   - flow_9_7_0_0 - flow_9_8_0_0 - flow_9_10_0_0 - flow_9_11_0_0
   - flow_9_12_0_0 + flow_10_9_0_0 + flow_11_9_0_0 + flow_12_9_0_0 = 1
 one_parent_10: edge_0_10_0_0 + edge_1_10_0_0 + edge_3_10_0_0
   + edge_7_10_0_0 + edge_8_10_0_0 + edge_9_10_0_0 = 1
 consume_one_flow_unit_10: flow_0_10_0_0 + flow_1_10_0_0 + flow_3_10_0_0
   + flow_7_10_0_0 + flow_8_10_0_0 + flow_9_10_0_0 - flow_10_1_0_0
   - flow_10_3_0_0 - flow_10_4_0_0 - flow_10_7_0_0 - flow_10_8_0_0
   - flow_10_9_0_0 - flow_10_11_0_0 - flow_10_12_0_0 = 1
 one_parent_11: edge_0_11_0_0 + edge_2_11_0_0 + edge_3_11_0_0
   + edge_4_11_0_0 + edge_7_11_0_0 + edge_8_11_0_0 + edge_9_11_0_0
   + edge_10_11_0_0 + edge_12_11_0_0 = 1
 consume_one_flow_unit_11: flow_0_11_0_0 + flow_2_11_0_0 + flow_3_11_0_0
   + flow_4_11_0_0 + flow_7_11_0_0 + flow_8_11_0_0 + flow_9_11_0_0
   + flow_10_11_0_0 - flow_11_1_0_0 - flow_11_2_0_0 - flow_11_3_0_0
   - flow_11_4_0_0 - flow_11_5_0_0 - flow_11_6_0_0 - flow_11_7_0_0
   - flow_11_8_0_0 - flow_11_9_0_0 - flow_11_12_0_0 + flow_12_11_0_0 = 1
 one_parent_12: edge_0_12_0_0 + edge_1_12_0_0 + edge_2_12_0_0
   + edge_3_12_0_0 + edge_5_12_0_0 + edge_6_12_0_0 + edge_7_12_0_0
   + edge_8_12_0_0 + edge_9_12_0_0 + edge_10_12_0_0 + edge_11_12_0_0 = 1
 consume_one_flow_unit_12: flow_0_12_0_0 + flow_1_12_0_0 + flow_2_12_0_0
   + flow_3_12_0_0 + flow_5_12_0_0 + flow_6_12_0_0 + flow_7_12_0_0
   + flow_8_12_0_0 + flow_9_12_0_0 + flow_10_12_0_0 + flow_11_12_0_0
   - flow_12_3_0_0 - flow_12_6_0_0 - flow_12_7_0_0 - flow_12_8_0_0
   - flow_12_9_0_0 - flow_12_11_0_0 = 1
 root_flow: flow_0_1_0_0 + flow_0_2_0_0 + flow_0_3_0_0 + flow_0_4_0_0
   + flow_0_7_0_0 + flow_0_8_0_0 + flow_0_9_0_0 + flow_0_10_0_0
   + flow_0_11_0_0 + flow_0_12_0_0 = 12
 inactive_no_flow_0_1_0_0: flow_0_1_0_0 - 1000 edge_0_1_0_0 <= 0
 inactive_no_flow_0_2_0_0: flow_0_2_0_0 - 1000 edge_0_2_0_0 <= 0
 inactive_no_flow_0_3_0_0: flow_0_3_0_0 - 1000 edge_0_3_0_0 <= 0
 inactive_no_flow_0_4_0_0: flow_0_4_0_0 - 1000 edge_0_4_0_0 <= 0
 inactive_no_flow_0_7_0_0: flow_0_7_0_0 - 1000 edge_0_7_0_0 <= 0
 inactive_no_flow_0_8_0_0: flow_0_8_0_0 - 1000 edge_0_8_0_0 <= 0
 inactive_no_flow_0_9_0_0: flow_0_9_0_0 - 1000 edge_0_9_0_0 <= 0
 inactive_no_flow_0_10_0_0: flow_0_10_0_0 - 1000 edge_0_10_0_0 <= 0
 inactive_no_flow_0_11_0_0: flow_0_11_0_0 - 1000 edge_0_11_0_0 <= 0
 inactive_no_flow_0_12_0_0: flow_0_12_0_0 - 1000 edge_0_12_0_0 <= 0
 inactive_no_flow_1_2_0_0: flow_1_2_0_0 - 1000 edge_1_2_0_0 <= 0
 inactive_no_flow_1_3_0_0: flow_1_3_0_0 - 1000 edge_1_3_0_0 <= 0
 inactive_no_flow_1_4_0_0: flow_1_4_0_0 - 1000 edge_1_4_0_0 <= 0
 inactive_no_flow_1_8_0_0: flow_1_8_0_0 - 1000 edge_1_8_0_0 <= 0
 inactive_no_flow_1_10_0_0: flow_1_10_0_0 - 1000 edge_1_10_0_0 <= 0
 inactive_no_flow_1_12_0_0: flow_1_12_0_0 - 1000 edge_1_12_0_0 <= 0
 inactive_no_flow_2_1_0_0: flow_2_1_0_0 - 1000 edge_2_1_0_0 <= 0
 inactive_no_flow_2_3_0_0: flow_2_3_0_0 - 1000 edge_2_3_0_0 <= 0
 inactive_no_flow_2_7_0_0: flow_2_7_0_0 - 1000 edge_2_7_0_0 <= 0
 inactive_no_flow_2_8_0_0: flow_2_8_0_0 - 1000 edge_2_8_0_0 <= 0
 inactive_no_flow_2_11_0_0: flow_2_11_0_0 - 1000 edge_2_11_0_0 <= 0
 inactive_no_flow_2_12_0_0: flow_2_12_0_0 - 1000 edge_2_12_0_0 <= 0
 inactive_no_flow_3_1_0_0: flow_3_1_0_0 - 1000 edge_3_1_0_0 <= 0
 inactive_no_flow_3_2_0_0: flow_3_2_0_0 - 1000 edge_3_2_0_0 <= 0
 inactive_no_flow_3_4_0_0: flow_3_4_0_0 - 1000 edge_3_4_0_0 <= 0
 inactive_no_flow_3_5_0_0: flow_3_5_0_0 - 1000 edge_3_5_0_0 <= 0
 inactive_no_flow_3_6_0_0: flow_3_6_0_0 - 1000 edge_3_6_0_0 <= 0
 inactive_no_flow_3_7_0_0: flow_3_7_0_0 - 1000 edge_3_7_0_0 <= 0
 inactive_no_flow_3_8_0_0: flow_3_8_0_0 - 1000 edge_3_8_0_0 <= 0
 inactive_no_flow_3_9_0_0: flow_3_9_0_0 - 1000 edge_3_9_0_0 <= 0
 inactive_no_flow_3_10_0_0: flow_3_10_0_0 - 1000 edge_3_10_0_0 <= 0
 inactive_no_flow_3_11_0_0: flow_3_11_0_0 - 1000 edge_3_11_0_0 <= 0
 inactive_no_flow_3_12_0_0: flow_3_12_0_0 - 1000 edge_3_12_0_0 <= 0
 inactive_no_flow_4_1_0_0: flow_4_1_0_0 - 1000 edge_4_1_0_0 <= 0
 inactive_no_flow_4_2_0_0: flow_4_2_0_0 - 1000 edge_4_2_0_0 <= 0
 inactive_no_flow_4_3_0_0: flow_4_3_0_0 - 1000 edge_4_3_0_0 <= 0
 inactive_no_flow_4_5_0_0: flow_4_5_0_0 - 1000 edge_4_5_0_0 <= 0
 inactive_no_flow_4_11_0_0: flow_4_11_0_0 - 1000 edge_4_11_0_0 <= 0
 inactive_no_flow_5_3_0_0: flow_5_3_0_0 - 1000 edge_5_3_0_0 <= 0
 inactive_no_flow_5_4_0_0: flow_5_4_0_0 - 1000 edge_5_4_0_0 <= 0
 inactive_no_flow_5_6_0_0: flow_5_6_0_0 - 1000 edge_5_6_0_0 <= 0
 inactive_no_flow_5_7_0_0: flow_5_7_0_0 - 1000 edge_5_7_0_0 <= 0
 inactive_no_flow_5_8_0_0: flow_5_8_0_0 - 1000 edge_5_8_0_0 <= 0
 inactive_no_flow_5_9_0_0: flow_5_9_0_0 - 1000 edge_5_9_0_0 <= 0
 inactive_no_flow_5_12_0_0: flow_5_12_0_0 - 1000 edge_5_12_0_0 <= 0
 inactive_no_flow_6_5_0_0: flow_6_5_0_0 - 1000 edge_6_5_0_0 <= 0
 inactive_no_flow_6_7_0_0: flow_6_7_0_0 - 1000 edge_6_7_0_0 <= 0
 inactive_no_flow_6_12_0_0: flow_6_12_0_0 - 1000 edge_6_12_0_0 <= 0
 inactive_no_flow_7_1_0_0: flow_7_1_0_0 - 1000 edge_7_1_0_0 <= 0
 inactive_no_flow_7_2_0_0: flow_7_2_0_0 - 1000 edge_7_2_0_0 <= 0
 inactive_no_flow_7_3_0_0: flow_7_3_0_0 - 1000 edge_7_3_0_0 <= 0
 inactive_no_flow_7_4_0_0: flow_7_4_0_0 - 1000 edge_7_4_0_0 <= 0
 inactive_no_flow_7_5_0_0: flow_7_5_0_0 - 1000 edge_7_5_0_0 <= 0
 inactive_no_flow_7_6_0_0: flow_7_6_0_0 - 1000 edge_7_6_0_0 <= 0
 inactive_no_flow_7_8_0_0: flow_7_8_0_0 - 1000 edge_7_8_0_0 <= 0
 inactive_no_flow_7_9_0_0: flow_7_9_0_0 - 1000 edge_7_9_0_0 <= 0
 inactive_no_flow_7_10_0_0: flow_7_10_0_0 - 1000 edge_7_10_0_0 <= 0
 inactive_no_flow_7_11_0_0: flow_7_11_0_0 - 1000 edge_7_11_0_0 <= 0
 inactive_no_flow_7_12_0_0: flow_7_12_0_0 - 1000 edge_7_12_0_0 <= 0
 inactive_no_flow_8_1_0_0: flow_8_1_0_0 - 1000 edge_8_1_0_0 <= 0
 inactive_no_flow_8_2_0_0: flow_8_2_0_0 - 1000 edge_8_2_0_0 <= 0
 inactive_no_flow_8_3_0_0: flow_8_3_0_0 - 1000 edge_8_3_0_0 <= 0
 inactive_no_flow_8_4_0_0: flow_8_4_0_0 - 1000 edge_8_4_0_0 <= 0
 inactive_no_flow_8_5_0_0: flow_8_5_0_0 - 1000 edge_8_5_0_0 <= 0
 inactive_no_flow_8_6_0_0: flow_8_6_0_0 - 1000 edge_8_6_0_0 <= 0
 inactive_no_flow_8_7_0_0: flow_8_7_0_0 - 1000 edge_8_7_0_0 <= 0
 inactive_no_flow_8_9_0_0: flow_8_9_0_0 - 1000 edge_8_9_0_0 <= 0
 inactive_no_flow_8_10_0_0: flow_8_10_0_0 - 1000 edge_8_10_0_0 <= 0
 inactive_no_flow_8_11_0_0: flow_8_11_0_0 - 1000 edge_8_11_0_0 <= 0
 inactive_no_flow_8_12_0_0: flow_8_12_0_0 - 1000 edge_8_12_0_0 <= 0
 inactive_no_flow_9_1_0_0: flow_9_1_0_0 - 1000 edge_9_1_0_0 <= 0
 inactive_no_flow_9_2_0_0: flow_9_2_0_0 - 1000 edge_9_2_0_0 <= 0
 inactive_no_flow_9_3_0_0: flow_9_3_0_0 - 1000 edge_9_3_0_0 <= 0
 inactive_no_flow_9_4_0_0: flow_9_4_0_0 - 1000 edge_9_4_0_0 <= 0
 inactive_no_flow_9_5_0_0: flow_9_5_0_0 - 1000 edge_9_5_0_0 <= 0
 inactive_no_flow_9_6_0_0: flow_9_6_0_0 - 1000 edge_9_6_0_0 <= 0
 inactive_no_flow_9_7_0_0: flow_9_7_0_0 - 1000 edge_9_7_0_0 <= 0
 inactive_no_flow_9_8_0_0: flow_9_8_0_0 - 1000 edge_9_8_0_0 <= 0
 inactive_no_flow_9_10_0_0: flow_9_10_0_0 - 1000 edge_9_10_0_0 <= 0
 inactive_no_flow_9_11_0_0: flow_9_11_0_0 - 1000 edge_9_11_0_0 <= 0
 inactive_no_flow_9_12_0_0: flow_9_12_0_0 - 1000 edge_9_12_0_0 <= 0
 inactive_no_flow_10_1_0_0: flow_10_1_0_0 - 1000 edge_10_1_0_0 <= 0
 inactive_no_flow_10_3_0_0: flow_10_3_0_0 - 1000 edge_10_3_0_0 <= 0
 inactive_no_flow_10_4_0_0: flow_10_4_0_0 - 1000 edge_10_4_0_0 <= 0
 inactive_no_flow_10_7_0_0: flow_10_7_0_0 - 1000 edge_10_7_0_0 <= 0
 inactive_no_flow_10_8_0_0: flow_10_8_0_0 - 1000 edge_10_8_0_0 <= 0
 inactive_no_flow_10_9_0_0: flow_10_9_0_0 - 1000 edge_10_9_0_0 <= 0
 inactive_no_flow_10_11_0_0: flow_10_11_0_0 - 1000 edge_10_11_0_0 <= 0
 inactive_no_flow_10_12_0_0: flow_10_12_0_0 - 1000 edge_10_12_0_0 <= 0
 inactive_no_flow_11_1_0_0: flow_11_1_0_0 - 1000 edge_11_1_0_0 <= 0
 inactive_no_flow_11_2_0_0: flow_11_2_0_0 - 1000 edge_11_2_0_0 <= 0
 inactive_no_flow_11_3_0_0: flow_11_3_0_0 - 1000 edge_11_3_0_0 <= 0
 inactive_no_flow_11_4_0_0: flow_11_4_0_0 - 1000 edge_11_4_0_0 <= 0
 inactive_no_flow_11_5_0_0: flow_11_5_0_0 - 1000 edge_11_5_0_0 <= 0
 inactive_no_flow_11_6_0_0: flow_11_6_0_0 - 1000 edge_11_6_0_0 <= 0
 inactive_no_flow_11_7_0_0: flow_11_7_0_0 - 1000 edge_11_7_0_0 <= 0
 inactive_no_flow_11_8_0_0: flow_11_8_0_0 - 1000 edge_11_8_0_0 <= 0
 inactive_no_flow_11_9_0_0: flow_11_9_0_0 - 1000 edge_11_9_0_0 <= 0
 inactive_no_flow_11_12_0_0: flow_11_12_0_0 - 1000 edge_11_12_0_0 <= 0
 inactive_no_flow_12_3_0_0: flow_12_3_0_0 - 1000 edge_12_3_0_0 <= 0
 inactive_no_flow_12_6_0_0: flow_12_6_0_0 - 1000 edge_12_6_0_0 <= 0
 inactive_no_flow_12_7_0_0: flow_12_7_0_0 - 1000 edge_12_7_0_0 <= 0
 inactive_no_flow_12_8_0_0: flow_12_8_0_0 - 1000 edge_12_8_0_0 <= 0
 inactive_no_flow_12_9_0_0: flow_12_9_0_0 - 1000 edge_12_9_0_0 <= 0
 inactive_no_flow_12_11_0_0: flow_12_11_0_0 - 1000 edge_12_11_0_0 <= 0
Bounds
Binaries
 edge_0_1_0_0 edge_0_2_0_0 edge_0_3_0_0 edge_0_4_0_0 edge_0_7_0_0
 edge_0_8_0_0 edge_0_9_0_0 edge_0_10_0_0 edge_0_11_0_0 edge_0_12_0_0
 edge_1_2_0_0 edge_1_3_0_0 edge_1_4_0_0 edge_1_8_0_0 edge_1_10_0_0
 edge_1_12_0_0 edge_2_1_0_0 edge_2_3_0_0 edge_2_7_0_0 edge_2_8_0_0
 edge_2_11_0_0 edge_2_12_0_0 edge_3_1_0_0 edge_3_2_0_0 edge_3_4_0_0
 edge_3_5_0_0 edge_3_6_0_0 edge_3_7_0_0 edge_3_8_0_0 edge_3_9_0_0
 edge_3_10_0_0 edge_3_11_0_0 edge_3_12_0_0 edge_4_1_0_0 edge_4_2_0_0
 edge_4_3_0_0 edge_4_5_0_0 edge_4_11_0_0 edge_5_3_0_0 edge_5_4_0_0
 edge_5_6_0_0 edge_5_7_0_0 edge_5_8_0_0 edge_5_9_0_0 edge_5_12_0_0
 edge_6_5_0_0 edge_6_7_0_0 edge_6_12_0_0 edge_7_1_0_0 edge_7_2_0_0
 edge_7_3_0_0 edge_7_4_0_0 edge_7_5_0_0 edge_7_6_0_0 edge_7_8_0_0
 edge_7_9_0_0 edge_7_10_0_0 edge_7_11_0_0 edge_7_12_0_0 edge_8_1_0_0
 edge_8_2_0_0 edge_8_3_0_0 edge_8_4_0_0 edge_8_5_0_0 edge_8_6_0_0
 edge_8_7_0_0 edge_8_9_0_0 edge_8_10_0_0 edge_8_11_0_0 edge_8_12_0_0
 edge_9_1_0_0 edge_9_2_0_0 edge_9_3_0_0 edge_9_4_0_0 edge_9_5_0_0
 edge_9_6_0_0 edge_9_7_0_0 edge_9_8_0_0 edge_9_10_0_0 edge_9_11_0_0
 edge_9_12_0_0 edge_10_1_0_0 edge_10_3_0_0 edge_10_4_0_0 edge_10_7_0_0
 edge_10_8_0_0 edge_10_9_0_0 edge_10_11_0_0 edge_10_12_0_0 edge_11_1_0_0
 edge_11_2_0_0 edge_11_3_0_0 edge_11_4_0_0 edge_11_5_0_0 edge_11_6_0_0
 edge_11_7_0_0 edge_11_8_0_0 edge_11_9_0_0 edge_11_12_0_0 edge_12_3_0_0
 edge_12_6_0_0 edge_12_7_0_0 edge_12_8_0_0 edge_12_9_0_0 edge_12_11_0_0
End
